minizinc/sudoku_problems2/sudoku_p77.dzn
%
% sudoku_p77.dzn
% See http://www.hakank.org/minizinc/sudoku_gcc.mzn
% 
% This problem is problem 77 from
% Gecode's sudoku.cpp
% http://www.gecode.org/gecode-doc-latest/sudoku_8cpp-source.html
% 
x = array2d(1..n, 1..n, [   
% http://janko.at/Raetsel/Sudoku/589.a.htm
% 77
  _,  _,  _,  4,  3,  9,  _,  2,  7,  _,  _,  5,  _,  _, 16,  _,
  5, 12,  6,  7,  _,  _,  _, 10,  9,  3,  _,  _,  _,  2, 13,  _,
  _,  3, 11,  _,  _,  _,  1, 13,  _,  _,  _,  2,  _,  7,  8,  _,
  _,  _,  _,  2,  _, 16,  7,  _,  8, 14, 10,  _,  3,  _,  5, 15,
 14,  _, 12,  _, 10,  2,  3,  _,  _,  _,  _, 13,  _,  _,  _,  7,
  _,  _,  _, 13,  _, 11,  _,  _, 16,  7, 15,  8,  1,  _,  _,  6,
  _, 16,  _,  1,  _,  6,  8,  _,  2, 10,  _, 14, 12, 13,  _,  _,
 15,  8,  _,  6,  _,  4, 16,  _,  _,  _,  _,  _,  _, 10, 14,  5,
  6,  4,  3,  _,  _,  _,  _,  _,  _, 13, 11,  _, 15,  _,  2, 14,
  _,  _,  5,  8,  6,  _,  4, 12,  _, 15,  2,  _, 13,  _, 11,  _,
 11,  _,  _, 15,  8, 10,  2, 16,  _,  _,  3,  _,  7,  _,  _,  _,
  7,  _,  _,  _, 14,  _,  _,  _,  _,  8,  9,  4,  _, 12,  _, 10,
 13,  7,  _,  3,  _,  1, 11,  4,  _, 12, 14,  _,  9,  _,  _,  _,
  _, 15,  4,  _,  9,  _,  _,  _, 11,  2,  _,  _,  _,  6, 12,  _,
  _, 11, 16,  _,  _,  _,  6,  7, 13,  _,  _,  _,  4, 14,  1,  3,
  _,  6,  _,  _, 15,  _,  _,  3,  1,  _,  4, 10, 11,  _,  _,  _
]);

n = 16;


